c colouring generated by benchmark framework
p edge 300 21695
v 1 17
v 2 36
v 3 27
v 4 0
v 5 42
v 6 9
v 7 15
v 8 27
v 9 2
v 10 27
v 11 12
v 12 35
v 13 31
v 14 5
v 15 7
v 16 34
v 17 14
v 18 18
v 19 31
v 20 12
v 21 37
v 22 10
v 23 6
v 24 31
v 25 5
v 26 19
v 27 22
v 28 21
v 29 18
v 30 33
v 31 17
v 32 24
v 33 12
v 34 19
v 35 20
v 36 8
v 37 4
v 38 40
v 39 7
v 40 15
v 41 21
v 42 26
v 43 7
v 44 9
v 45 26
v 46 12
v 47 3
v 48 14
v 49 20
v 50 34
v 51 41
v 52 3
v 53 16
v 54 20
v 55 38
v 56 27
v 57 11
v 58 32
v 59 29
v 60 14
v 61 1
v 62 31
v 63 38
v 64 18
v 65 7
v 66 3
v 67 42
v 68 24
v 69 13
v 70 22
v 71 38
v 72 32
v 73 41
v 74 36
v 75 37
v 76 8
v 77 15
v 78 26
v 79 13
v 80 33
v 81 8
v 82 19
v 83 30
v 84 27
v 85 29
v 86 19
v 87 8
v 88 6
v 89 14
v 90 4
v 91 31
v 92 21
v 93 3
v 94 14
v 95 37
v 96 0
v 97 25
v 98 26
v 99 14
v 100 26
v 101 19
v 102 24
v 103 37
v 104 35
v 105 5
v 106 17
v 107 33
v 108 30
v 109 40
v 110 9
v 111 25
v 112 39
v 113 10
v 114 34
v 115 11
v 116 19
v 117 28
v 118 13
v 119 32
v 120 5
v 121 30
v 122 23
v 123 41
v 124 8
v 125 6
v 126 1
v 127 40
v 128 9
v 129 35
v 130 38
v 131 35
v 132 32
v 133 24
v 134 5
v 135 40
v 136 42
v 137 32
v 138 18
v 139 1
v 140 41
v 141 30
v 142 37
v 143 34
v 144 40
v 145 27
v 146 16
v 147 39
v 148 23
v 149 20
v 150 10
v 151 13
v 152 22
v 153 29
v 154 41
v 155 33
v 156 12
v 157 24
v 158 6
v 159 14
v 160 39
v 161 0
v 162 22
v 163 29
v 164 5
v 165 30
v 166 28
v 167 24
v 168 0
v 169 39
v 170 10
v 171 39
v 172 2
v 173 21
v 174 29
v 175 29
v 176 11
v 177 11
v 178 26
v 179 39
v 180 13
v 181 20
v 182 21
v 183 0
v 184 6
v 185 32
v 186 19
v 187 41
v 188 1
v 189 26
v 190 17
v 191 16
v 192 28
v 193 30
v 194 41
v 195 3
v 196 7
v 197 12
v 198 36
v 199 33
v 200 25
v 201 16
v 202 25
v 203 0
v 204 12
v 205 30
v 206 13
v 207 4
v 208 37
v 209 6
v 210 9
v 211 2
v 212 15
v 213 3
v 214 20
v 215 23
v 216 9
v 217 1
v 218 23
v 219 1
v 220 20
v 221 28
v 222 22
v 223 28
v 224 26
v 225 39
v 226 40
v 227 4
v 228 20
v 229 41
v 230 31
v 231 2
v 232 10
v 233 22
v 234 11
v 235 17
v 236 4
v 237 16
v 238 3
v 239 21
v 240 11
v 241 38
v 242 35
v 243 34
v 244 17
v 245 28
v 246 0
v 247 10
v 248 18
v 249 40
v 250 23
v 251 33
v 252 33
v 253 4
v 254 20
v 255 16
v 256 1
v 257 38
v 258 30
v 259 31
v 260 4
v 261 2
v 262 22
v 263 36
v 264 25
v 265 21
v 266 23
v 267 35
v 268 11
v 269 2
v 270 42
v 271 35
v 272 1
v 273 34
v 274 2
v 275 36
v 276 25
v 277 6
v 278 1
v 279 34
v 280 9
v 281 7
v 282 8
v 283 38
v 284 10
v 285 27
v 286 42
v 287 37
v 288 24
v 289 5
v 290 11
v 291 29
v 292 27
v 293 21
v 294 23
v 295 15
v 296 10
v 297 8
v 298 13
v 299 7
v 300 19
